 ! --------------------------------------------------- CP Optimizer 22.1.1.0 --
 ! Satisfiability problem - 39200 variables, 432212 constraints
 ! Presolve      : 24000 extractables eliminated
 ! TimeLimit            = 3600
 ! Workers              = 1
 ! Initial process time : 3.92s (3.89s extraction + 0.03s propagation)
 !  . Log search space  : 401596.6 (before), 401596.6 (after)
 !  . Memory usage      : 291.4 MB (before), 291.4 MB (after)
 ! Using sequential search.
 ! ----------------------------------------------------------------------------
 !               Branches  Non-fixed            Branch decision
                     1122      37952        F          presenceOf(copy_trips:1_35)
                     2070      38590        F          presenceOf(copy_trips:19_0)
                     3000      16920                   presenceOf(copy_bus_parking:12_200)
                     4000      13635        F          presenceOf(copy_trips:29_0)
                     5000      13506                  !presenceOf(copy_bus_parking:9_222)
                     6000      13506                   presenceOf(copy_lane_parking:3_134)
                     7000      26994                   presenceOf(copy_lane_parking:5_235)
                     8000      13512        F          presenceOf(copy_trips:35_222)
                     9000      13635                   presenceOf(copy_lane_parking:5_139)
                    10000      14416                  !presenceOf(copy_trips:37_232)
                    11000      13422        F          presenceOf(copy_trips:20_40)
                    12000      16760                  !presenceOf(copy_trips:24_30)
                    13000      16123                   presenceOf(copy_lane_parking:0_265)
                    14000      26956                  !presenceOf(copy_bus_parking:16_17)
                    15000      24866                   presenceOf(copy_lane_parking:2_242)
                    16000      26401                  !presenceOf(copy_trips:2_29)
                    17000      24860        F          presenceOf(copy_bus_parking:4_296)
                    18000      16480        F          presenceOf(copy_trips:14_40)
                    19000      16480                  !presenceOf(copy_trips:18_33)
                    20000      16480                  !presenceOf(copy_trips:30_35)
 ! Time = 29.15s, Average fail depth = 401, Memory usage = 974.9 MB
 !               Branches  Non-fixed            Branch decision
                    21000      16480                   presenceOf(copy_lane_parking:4_175)
                    22000      27611                   presenceOf(copy_trips:9_12)
                    23000      26083                   presenceOf(copy_lane_parking:4_35)
                    24000      18911                   presenceOf(copy_bus_parking:25_242)
                    25000      24860                  !presenceOf(copy_trips:38_299)
                    26000      22657        F          presenceOf(copy_bus_parking:8_3)
                    27000      22657                   presenceOf(copy_lane_parking:4_22)
                    28000      16760        F          presenceOf(copy_bus_parking:25_33)
                    29000      13635                  !presenceOf(copy_trips:8_222)
                    30000      13635        F          presenceOf(copy_bus_parking:37_25)
                    31000      27956                   presenceOf(copy_trips:20_36)
                    32000      25959                  !presenceOf(copy_bus_parking:21_1)
                    33000      16905                   presenceOf(copy_lane_parking:4_225)
                    34000      24866                  !presenceOf(copy_bus_parking:30_299)
                    35000      24866                  !presenceOf(copy_bus_parking:35_299)
                    36000      24866                  !presenceOf(copy_bus_parking:13_299)
                    37000      24866                   presenceOf(copy_trips:37_52)
                    38000      30958                   presenceOf(copy_bus_parking:14_4)
                    39000      24872                  !presenceOf(copy_trips:30_299)
                    40000      24881        F          presenceOf(copy_bus_parking:2_2)
 ! Time = 53.71s, Average fail depth = 389, Memory usage = 975.3 MB
 !               Branches  Non-fixed            Branch decision
                    41000      13521                  !presenceOf(copy_trips:25_292)
                    42000      13521        F          presenceOf(copy_bus_parking:4_222)
                    43000      13521                  !presenceOf(copy_trips:6_292)
                    44000      13521                   presenceOf(copy_lane_parking:6_264)
                    45000      35360                   presenceOf(copy_lane_parking:7_255)
                    46000      13402                   presenceOf(copy_lane_parking:4_102)
                    47000      26205                   presenceOf(copy_bus_parking:6_248)
                    48000      24836        F          presenceOf(copy_bus_parking:20_296)
                    49000      24830        F          presenceOf(copy_bus_parking:20_296)
                    50000      24836        F          presenceOf(copy_bus_parking:29_296)
                    51000      24827        F          presenceOf(copy_trips:16_299)
                    52000      24854        F          presenceOf(copy_trips:37_0)
                    53000      35397        F          presenceOf(copy_trips:32_0)
                    54000      35397                  !presenceOf(copy_trips:36_2)
                    55000      34806        F          presenceOf(copy_trips:19_4)
                    56000      34758        F         !presenceOf(copy_trips:18_0)
                    57000      34758        F          presenceOf(copy_trips:2_4)
                    58000      34700        F         !presenceOf(copy_trips:0_0)
                    59000      34700        F          presenceOf(copy_trips:13_4)
                    60000      34700        F          presenceOf(copy_trips:14_4)
 ! Time = 71.11s, Average fail depth = 383, Memory usage = 975.3 MB
 !               Branches  Non-fixed            Branch decision
                    61000      34697        F          presenceOf(copy_trips:19_4)
                    62000      34697        F          presenceOf(copy_trips:0_0)
                    63000      34697                   presenceOf(copy_trips:22_4)
                    64000      34697                  !presenceOf(copy_trips:18_0)
                    65000      24997                  !presenceOf(copy_trips:17_299)
                    66000      24863                  !presenceOf(copy_trips:17_299)
                    67000      24863        F         !presenceOf(copy_trips:8_299)
                    68000      24863                  !presenceOf(copy_trips:24_299)
                    69000      24866        F          presenceOf(copy_trips:14_24)
                    70000      24872                  !presenceOf(copy_bus_parking:7_296)
                    71000      24872                  !presenceOf(copy_bus_parking:28_296)
                    72000      24872                  !presenceOf(copy_bus_parking:22_296)
                    73000      24869                  !presenceOf(copy_bus_parking:20_296)
                    74000      24872                  !presenceOf(copy_bus_parking:36_296)
                    75000      24872        F         !presenceOf(copy_bus_parking:18_296)
                    76000      24872                  !presenceOf(copy_bus_parking:21_296)
                    77000      24872                  !presenceOf(copy_bus_parking:10_296)
                    78000      24869                  !presenceOf(copy_bus_parking:28_296)
                    79000      24869                  !presenceOf(copy_bus_parking:39_296)
                    80000      24872                  !presenceOf(copy_bus_parking:38_296)
 ! Time = 83.73s, Average fail depth = 379, Memory usage = 978.0 MB
 !               Branches  Non-fixed            Branch decision
                    81000      24872                  !presenceOf(copy_bus_parking:2_296)
                    82000      24872        F          presenceOf(copy_bus_parking:22_296)
                    83000      24872        F          presenceOf(copy_bus_parking:10_212)
                    84000      13635        F          presenceOf(copy_bus_parking:37_222)
                    85000      13629        F          presenceOf(copy_trips:36_222)
                    86000      13629                   presenceOf(copy_lane_parking:5_115)
                    87000      26014        F          presenceOf(copy_trips:7_17)
                    88000      26311                   presenceOf(copy_lane_parking:0_73)
                    89000      30047                   presenceOf(copy_lane_parking:3_196)
                    90000      24860                   presenceOf(copy_lane_parking:2_27)
                    91000      25989        F          presenceOf(copy_trips:13_26)
                    92000      13423        F          presenceOf(copy_bus_parking:10_201)
                    93000      13423        F          presenceOf(copy_bus_parking:36_26)
                    94000      27799                   presenceOf(copy_lane_parking:0_39)
                    95000      13414                   presenceOf(copy_bus_parking:2_2)
                    96000      35690        F         !presenceOf(copy_bus_parking:24_3)
                    97000      34270                  !presenceOf(copy_bus_parking:5_14)
                    98000      34268        F          presenceOf(copy_trips:22_32)
                    99000      24863                   presenceOf(copy_lane_parking:2_157)
                     100k      13015                   presenceOf(copy_lane_parking:5_96)
 ! Time = 107.05s, Average fail depth = 380, Memory usage = 978.0 MB
 !               Branches  Non-fixed            Branch decision
                     101k      33521                   presenceOf(copy_lane_parking:5_260)
                     102k      24830                   presenceOf(copy_lane_parking:5_258)
                     103k      24887        F         !presenceOf(copy_bus_parking:20_296)
                     104k      24878                  !presenceOf(copy_bus_parking:18_21)
                     105k      26604        F          presenceOf(copy_bus_parking:39_24)
                     106k      26604                  !presenceOf(copy_bus_parking:34_21)
                     107k      26604                   presenceOf(copy_trips:16_38)
                     108k      23233        F          presenceOf(copy_trips:34_121)
                     109k      23223                  !presenceOf(copy_trips:24_299)
                     110k      24857        F         !presenceOf(copy_bus_parking:6_32)
                     111k      33622        F          presenceOf(copy_trips:5_17)
                     112k      33622        F         !presenceOf(copy_bus_parking:6_32)
                     113k      33622                  !presenceOf(copy_trips:25_17)
                     114k      33622                  !presenceOf(copy_trips:23_17)
                     115k      33622                   presenceOf(copy_bus_parking:23_38)
                     116k      33622        F          presenceOf(copy_trips:22_17)
                     117k      33622        F         !presenceOf(copy_bus_parking:6_32)
                     118k      33622                   presenceOf(copy_trips:21_17)
                     119k      33622        F          presenceOf(copy_bus_parking:6_32)
                     120k      33622                   presenceOf(copy_bus_parking:33_38)
 ! Time = 126.47s, Average fail depth = 371, Memory usage = 978.8 MB
 !               Branches  Non-fixed            Branch decision
                     121k      33622        F         !presenceOf(copy_trips:33_17)
                     122k      33622                  !presenceOf(copy_trips:5_17)
                     123k      23342                  !presenceOf(copy_trips:34_1)
                     124k      22826                  !presenceOf(copy_trips:19_299)
                     125k      24845                  !presenceOf(copy_bus_parking:25_296)
                     126k      18623                  !presenceOf(copy_trips:30_219)
                     127k      13421                  !presenceOf(copy_bus_parking:29_201)
                     128k      13421                  !presenceOf(copy_bus_parking:38_201)
                     129k      13421        F         !presenceOf(copy_bus_parking:28_201)
                     130k      13421        F          presenceOf(copy_bus_parking:9_296)
                     131k      24851        F          presenceOf(copy_bus_parking:14_296)
                     132k      24851        F          presenceOf(copy_bus_parking:32_296)
                     133k      24851                   presenceOf(copy_lane_parking:5_278)
                     134k      21856                   presenceOf(copy_trips:17_293)
                     135k      13514                  !presenceOf(copy_bus_parking:36_296)
                     136k      24839                   presenceOf(copy_bus_parking:7_234)
                     137k      24857                  !presenceOf(copy_trips:6_296)
                     138k      24872                  !presenceOf(copy_trips:18_299)
                     139k      24875                   presenceOf(copy_lane_parking:7_167)
                     140k      13629                  !presenceOf(copy_bus_parking:33_222)
 ! Time = 144.52s, Average fail depth = 377, Memory usage = 978.8 MB
 !               Branches  Non-fixed            Branch decision
                     141k      13629                   presenceOf(copy_lane_parking:4_204)
                     142k      24860                   presenceOf(copy_lane_parking:4_211)
                     143k      35368                   presenceOf(copy_lane_parking:0_189)
                     144k      24863                   presenceOf(copy_trips:21_75)
                     145k      26915        F          presenceOf(copy_trips:7_30)
                     146k      26912                  !presenceOf(copy_trips:16_30)
                     147k      26683        F          presenceOf(copy_trips:20_30)
                     148k      26134                  !presenceOf(copy_trips:1_17)
                     149k      25932                  !presenceOf(copy_trips:24_17)
                     150k      25929                  !presenceOf(copy_trips:8_17)
                     151k      25931                  !presenceOf(copy_trips:31_17)
                     152k      25931                  !presenceOf(copy_trips:34_17)
                     153k      25938                  !presenceOf(copy_trips:24_17)
                     154k      26740        F         !presenceOf(copy_trips:33_17)
                     155k      26744                  !presenceOf(copy_trips:38_17)
                     156k      26743                  !presenceOf(copy_trips:26_17)
                     157k      26743                   presenceOf(copy_trips:9_25)
                     158k      26710                  !presenceOf(copy_trips:26_17)
                     159k      25932                  !presenceOf(copy_trips:24_17)
                     160k      25897        F         !presenceOf(copy_bus_parking:0_0)
 ! Time = 171.79s, Average fail depth = 377, Memory usage = 978.8 MB
 !               Branches  Non-fixed            Branch decision
                     161k      24872        F          presenceOf(copy_bus_parking:6_296)
                     162k      24863                  !presenceOf(copy_trips:36_299)
                     163k      24863        F          presenceOf(copy_bus_parking:26_298)
                     164k      24863                  !presenceOf(copy_trips:19_299)
                     165k      24863        F          presenceOf(copy_bus_parking:6_296)
                     166k      24872        F          presenceOf(copy_bus_parking:26_298)
                     167k      24863                  !presenceOf(copy_trips:39_299)
                     168k      24863                  !presenceOf(copy_trips:36_299)
                     169k      24863        F         !presenceOf(copy_trips:31_299)
                     170k      24863                  !presenceOf(copy_trips:39_299)
                     171k      24860        F          presenceOf(copy_bus_parking:6_296)
                     172k      24872        F          presenceOf(copy_bus_parking:30_298)
                     173k      24863                  !presenceOf(copy_trips:17_299)
                     174k      24863                  !presenceOf(copy_trips:35_299)
                     175k      24863        F          presenceOf(copy_bus_parking:30_298)
                     176k      24863                  !presenceOf(copy_trips:17_299)
                     177k      24863        F          presenceOf(copy_bus_parking:6_296)
                     178k      24863                  !presenceOf(copy_trips:12_299)
                     179k      24863                  !presenceOf(copy_trips:24_299)
                     180k      24863        F          presenceOf(copy_bus_parking:22_298)
 ! Time = 186.21s, Average fail depth = 381, Memory usage = 978.8 MB
 !               Branches  Non-fixed            Branch decision
                     181k      24860        F          presenceOf(copy_bus_parking:6_296)
                     182k      24863                  !presenceOf(copy_trips:24_299)
                     183k      24872        F          presenceOf(copy_bus_parking:22_298)
                     184k      24863                  !presenceOf(copy_trips:12_299)
                     185k      24863        F          presenceOf(copy_bus_parking:6_296)
                     186k      24863                  !presenceOf(copy_trips:2_299)
                     187k      24863                  !presenceOf(copy_trips:14_299)
                     188k      24872                  !presenceOf(copy_trips:5_299)
                     189k      24863        F         !presenceOf(copy_trips:31_299)
                     190k      24863                  !presenceOf(copy_trips:6_299)
                     191k      24863                  !presenceOf(copy_trips:0_299)
                     192k      24860        F          presenceOf(copy_bus_parking:6_296)
                     193k      24872        F          presenceOf(copy_bus_parking:6_296)
                     194k      24863        F          presenceOf(copy_bus_parking:30_298)
                     195k      24863        F          presenceOf(copy_bus_parking:6_296)
                     196k      24863                  !presenceOf(copy_trips:16_299)
                     197k      24863                  !presenceOf(copy_trips:8_299)
                     198k      24863                  !presenceOf(copy_trips:14_299)
                     199k      24863        F          presenceOf(copy_bus_parking:15_298)
                     200k      24863                  !presenceOf(copy_trips:6_299)
 ! Time = 198.90s, Average fail depth = 384, Memory usage = 978.8 MB
 !               Branches  Non-fixed            Branch decision
                     201k      24860                  !presenceOf(copy_trips:4_299)
                     202k      24863                  !presenceOf(copy_trips:24_299)
                     203k      24872                  !presenceOf(copy_trips:7_299)
                     204k      24863                  !presenceOf(copy_trips:30_299)
                     205k      24863                  !presenceOf(copy_trips:4_299)
                     206k      24863                  !presenceOf(copy_trips:5_299)
                     207k      24863                  !presenceOf(copy_trips:6_299)
                     208k      24863                  !presenceOf(copy_trips:28_299)
                     209k      24872                  !presenceOf(copy_trips:5_299)
                     210k      24863        F          presenceOf(copy_bus_parking:24_296)
                     211k      24863                  !presenceOf(copy_trips:4_299)
                     212k      24863        F          presenceOf(copy_bus_parking:6_296)
                     213k      24872                   presenceOf(copy_lane_parking:5_139)
                     214k      24863                   presenceOf(copy_lane_parking:6_53)
                     215k      13512                  !presenceOf(copy_trips:13_292)
                     216k      13512        F          presenceOf(copy_bus_parking:38_25)
                     217k      24872        F          presenceOf(copy_trips:23_21)
                     218k      30958                   presenceOf(copy_lane_parking:6_77)
                     219k      24857                   presenceOf(copy_bus_parking:4_250)
                     220k      24878                  !presenceOf(copy_trips:23_38)
 ! Time = 218.34s, Average fail depth = 384, Memory usage = 978.8 MB
 !               Branches  Non-fixed            Branch decision
                     221k      22063                  !presenceOf(copy_trips:25_134)
                     222k      21954        F          presenceOf(copy_bus_parking:2_31)
                     223k      27775                  !presenceOf(copy_trips:10_36)
                     224k      27796        F          presenceOf(copy_bus_parking:16_31)
                     225k      27796        F          presenceOf(copy_trips:17_0)
                     226k      24848        F         !presenceOf(copy_trips:17_299)
                     227k      24851        F          presenceOf(copy_trips:15_296)
                     228k      24848        F         !presenceOf(copy_trips:17_299)
                     229k      24845                   presenceOf(copy_trips:30_203)
                     230k      24848        F          presenceOf(copy_bus_parking:23_26)
                     231k      24863        F          presenceOf(copy_trips:8_299)
                     232k      24863                   presenceOf(copy_bus_parking:18_298)
                     233k      24863                  !presenceOf(copy_bus_parking:35_296)
                     234k      24863                  !presenceOf(copy_bus_parking:15_296)
                     235k      24863                  !presenceOf(copy_bus_parking:34_296)
                     236k      24863                  !presenceOf(copy_bus_parking:31_296)
                     237k      24863                  !presenceOf(copy_bus_parking:12_296)
                     238k      24863                  !presenceOf(copy_bus_parking:12_296)
                     239k      24863                  !presenceOf(copy_bus_parking:7_296)
                     240k      24863                  !presenceOf(copy_bus_parking:37_296)
 ! Time = 235.09s, Average fail depth = 383, Memory usage = 978.8 MB
 !               Branches  Non-fixed            Branch decision
                     241k      24863                  !presenceOf(copy_bus_parking:11_296)
                     242k      24863                  !presenceOf(copy_bus_parking:24_296)
                     243k      24860        F          presenceOf(copy_trips:8_299)
                     244k      24860        F          presenceOf(copy_trips:23_45)
                     245k      28444                   presenceOf(copy_lane_parking:1_183)
                     246k      24863                  !presenceOf(copy_bus_parking:4_296)
                     247k      24860        F          presenceOf(copy_bus_parking:26_298)
                     248k      24860                  !presenceOf(copy_bus_parking:34_296)
                     249k      24860                  !presenceOf(copy_bus_parking:5_296)
                     250k      24857        F          presenceOf(copy_bus_parking:14_296)
                     251k      24860                  !presenceOf(copy_bus_parking:35_296)
                     252k      24860        F          presenceOf(copy_bus_parking:16_298)
                     253k      24857                  !presenceOf(copy_bus_parking:23_296)
                     254k      24863        F          presenceOf(copy_bus_parking:10_298)
                     255k      24860        F          presenceOf(copy_bus_parking:12_296)
                     256k      24872                  !presenceOf(copy_bus_parking:16_296)
                     257k      24866        F          presenceOf(copy_trips:11_299)
                     258k      24866        F          presenceOf(copy_bus_parking:38_298)
                     259k      24866        F          presenceOf(copy_trips:11_299)
                     260k      24869                  !presenceOf(copy_bus_parking:16_296)
 ! Time = 247.88s, Average fail depth = 384, Memory usage = 978.8 MB
 !               Branches  Non-fixed            Branch decision
                     261k      24863                  !presenceOf(copy_bus_parking:20_296)
                     262k      24860                  !presenceOf(copy_bus_parking:8_296)
                     263k      24866                  !presenceOf(copy_bus_parking:26_296)
                     264k      24860                  !presenceOf(copy_bus_parking:26_296)
                     265k      24863        F         !presenceOf(copy_bus_parking:12_296)
                     266k      24863                  !presenceOf(copy_bus_parking:3_296)
                     267k      24860                  !presenceOf(copy_bus_parking:34_296)
                     268k      24863                  !presenceOf(copy_bus_parking:1_296)
                     269k      24860                  !presenceOf(copy_bus_parking:32_296)
                     270k      24863        F          presenceOf(copy_bus_parking:39_298)
                     271k      24866                  !presenceOf(copy_bus_parking:35_296)
                     272k      24869                  !presenceOf(copy_bus_parking:31_296)
                     273k      24863        F          presenceOf(copy_bus_parking:29_296)
                     274k      24866                  !presenceOf(copy_bus_parking:2_296)
                     275k      24866                  !presenceOf(copy_bus_parking:33_296)
                     276k      24863        F          presenceOf(copy_trips:11_299)
                     277k      24866                  !presenceOf(copy_bus_parking:1_296)
                     278k      24863        F          presenceOf(copy_bus_parking:7_296)
                     279k      24866                  !presenceOf(copy_trips:26_219)
                     280k      24860                  !presenceOf(copy_bus_parking:37_296)
 ! Time = 258.52s, Average fail depth = 386, Memory usage = 978.8 MB
 !               Branches  Non-fixed            Branch decision
                     281k      24863                  !presenceOf(copy_bus_parking:16_296)
                     282k      24866                  !presenceOf(copy_bus_parking:9_296)
                     283k      24860                  !presenceOf(copy_bus_parking:17_298)
                     284k      24863                  !presenceOf(copy_bus_parking:18_296)
                     285k      24860                  !presenceOf(copy_bus_parking:26_296)
                     286k      24860                  !presenceOf(copy_bus_parking:8_296)
                     287k      24863                  !presenceOf(copy_bus_parking:22_296)
                     288k      24857                  !presenceOf(copy_bus_parking:22_296)
                     289k      24860                  !presenceOf(copy_bus_parking:23_296)
                     290k      24860                   presenceOf(copy_bus_parking:19_298)
                     291k      24857                  !presenceOf(copy_bus_parking:4_296)
                     292k      24860                  !presenceOf(copy_bus_parking:31_296)
                     293k      24863                  !presenceOf(copy_bus_parking:22_296)
                     294k      24860                  !presenceOf(copy_bus_parking:33_298)
                     295k      24872                  !presenceOf(copy_bus_parking:30_296)
                     296k      24866                  !presenceOf(copy_bus_parking:38_296)
                     297k      24866                   presenceOf(copy_lane_parking:6_293)
                     298k      16760                   presenceOf(copy_lane_parking:5_124)
                     299k      16301                   presenceOf(copy_lane_parking:6_63)
                     300k      27645                  !presenceOf(copy_bus_parking:1_29)
 ! Time = 272.80s, Average fail depth = 386, Memory usage = 978.8 MB
 !               Branches  Non-fixed            Branch decision
                     301k      25767        F          presenceOf(copy_trips:36_26)
                     302k      25759        F          presenceOf(copy_bus_parking:29_25)
                     303k      25765        F          presenceOf(copy_trips:20_26)
                     304k      25942                  !presenceOf(copy_trips:12_77)
                     305k      26658                   presenceOf(copy_lane_parking:7_12)
                     306k      27194                  !presenceOf(copy_bus_parking:19_2)
                     307k      35214        F          presenceOf(copy_bus_parking:25_2)
                     308k      33851        F          presenceOf(copy_trips:28_93)
                     309k      33851        F          presenceOf(copy_bus_parking:19_13)
                     310k      33851                  !presenceOf(copy_bus_parking:14_13)
                     311k      33851                   presenceOf(copy_trips:13_17)
                     312k      33851                  !presenceOf(copy_trips:34_93)
                     313k      33851        F          presenceOf(copy_bus_parking:25_13)
                     314k      31212                  !presenceOf(copy_bus_parking:8_47)
                     315k      28895        F          presenceOf(copy_trips:1_67)
                     316k      28892        F         !presenceOf(copy_trips:37_67)
                     317k      28892        F          presenceOf(copy_trips:10_67)
                     318k      28892        F          presenceOf(copy_bus_parking:15_68)
                     319k      28895                   presenceOf(copy_lane_parking:3_188)
                     320k      24848        F          presenceOf(copy_trips:4_296)
 ! Time = 293.69s, Average fail depth = 383, Memory usage = 978.8 MB
 !               Branches  Non-fixed            Branch decision
                     321k      24857                   presenceOf(copy_lane_parking:3_226)
                     322k      21047                   presenceOf(copy_trips:29_223)
                     323k      13403            245 != endOf(start_parking:38)
                     324k      16546        F          presenceOf(copy_trips:35_239)
                     325k      15075                   presenceOf(copy_bus_parking:12_220)
                     326k      24945        F          presenceOf(copy_trips:14_11)
                     327k      25492            on charge:39_74
                     328k      12595                  !presenceOf(copy_trips:14_202)
                     329k        659        F          presenceOf(copy_trips:30_219)
 *                   329k  304.35s                   -
 ! ----------------------------------------------------------------------------
 ! Search completed, 1 solution found.
 ! ----------------------------------------------------------------------------
 ! Number of branches     : 329167
 ! Number of fails        : 138924
 ! Total memory usage     : 1.1 GB (1.1 GB CP Optimizer + 0.0 GB Concert)
 ! Time spent in solve    : 304.36s (300.47s engine + 3.89s extraction)
 ! Search speed (br. / s) : 1095.5
 ! ----------------------------------------------------------------------------
